clingo version 5.5.2
Reading from ...nt/beegfs/home/jubruns/encoding/mif.lp ...
Solving...
Answer: 1
move(1,(12,2),(12,3),1) move(2,(11,11),(11,12),1) move(1,(12,3),(12,4),2) move(2,(11,12),(11,13),2) move(3,(13,13),(13,12),2)
SATISFIABLE

Models       : 1+
Calls        : 1
Time         : 0.074s (Solving: 0.00s 1st Model: 0.00s Unsat: 0.00s)
CPU Time     : 0.035s

Choices      : 1        (Domain: 1)
Conflicts    : 0        (Analyzed: 0)
Restarts     : 0       
Model-Level  : 1.0     
Problems     : 1        (Average Length: 0.00 Splits: 0)
Lemmas       : 0        (Deleted: 0)
  Binary     : 0        (Ratio:   0.00%)
  Ternary    : 0        (Ratio:   0.00%)
  Conflict   : 0        (Average Length:    0.0 Ratio:   0.00%) 
  Loop       : 0        (Average Length:    0.0 Ratio:   0.00%) 
  Other      : 0        (Average Length:    0.0 Ratio:   0.00%) 
Backjumps    : 0        (Average:  0.00 Max:   0 Sum:      0)
  Executed   : 0        (Average:  0.00 Max:   0 Sum:      0 Ratio:   0.00%)
  Bounded    : 0        (Average:  0.00 Max:   0 Sum:      0 Ratio: 100.00%)

Rules        : 10268    (Original: 4963)
  Choice     : 6       
  Heuristic  : 6        (Original: 43)
Atoms        : 5843     (Original: 3209 Auxiliary: 2634)
Bodies       : 3796     (Original: 2421)
  Count      : 0        (Original: 18)
Equivalences : 6127     (Atom=Atom: 29 Body=Body: 37 Other: 6061)
Tight        : Yes
Variables    : 4016     (Eliminated:    0 Frozen:    0)
Constraints  : 6271     (Binary:  89.5% Ternary:  10.5% Other:   0.0%)

